Version identifier: 12.10.0.0 | 2019-11-26 | 843d4de
CPXPARAM_WorkMem                                 28672
Tried aggregator 2 times.
Aggregator did 40 substitutions.
Reduced MIP has 184 rows, 240 columns, and 880 nonzeros.
Reduced MIP has 240 binaries, 0 generals, 0 SOSs, and 0 indicators.
Presolve time = 0,00 sec. (0,81 ticks)
Found incumbent of value 3372,000000 after 0,00 sec. (1,57 ticks)
Probing time = 0,00 sec. (0,28 ticks)
Tried aggregator 1 time.
Detecting symmetries...
MIP Presolve eliminated 36 rows and 0 columns.
MIP Presolve added 72 rows and 0 columns.
Reduced MIP has 220 rows, 240 columns, and 916 nonzeros.
Reduced MIP has 240 binaries, 0 generals, 0 SOSs, and 0 indicators.
Presolve time = 0,00 sec. (0,99 ticks)
Probing time = 0,00 sec. (0,27 ticks)
Clique table members: 580.
MIP emphasis: balance optimality and feasibility.
MIP search method: dynamic search.
Parallel mode: deterministic, using up to 16 threads.
Root relaxation solution time = 0,00 sec. (0,68 ticks)

        Nodes                                         Cuts/
   Node  Left     Objective  IInf  Best Integer    Best Bound    ItCnt     Gap

*     0+    0                         3372,0000        0,0000           100,00%
*     0+    0                         2092,0000        0,0000           100,00%
*     0+    0                         1970,0000        0,0000           100,00%
      0     0      843,0000   117     1970,0000      843,0000       86   57,21%
      0     0      843,0000   117     1970,0000     Cuts: 129      144   57,21%
      0     0      843,0000   117     1970,0000     Cuts: 146      207   57,21%
*     0+    0                         1873,0000      843,0000            54,99%
      0     2      843,0000   130     1873,0000      843,0000      207   54,99%
Elapsed time = 0,06 sec. (25,19 ticks, tree = 0,02 MB, solutions = 4)
*  3954+ 2883                         1870,0000     1101,8632            41,08%

Performing restart 1

Repeating presolve.
Tried aggregator 1 time.
Reduced MIP has 220 rows, 240 columns, and 916 nonzeros.
Reduced MIP has 240 binaries, 0 generals, 0 SOSs, and 0 indicators.
Presolve time = 0,00 sec. (0,51 ticks)
Tried aggregator 1 time.
Reduced MIP has 220 rows, 240 columns, and 916 nonzeros.
Reduced MIP has 240 binaries, 0 generals, 0 SOSs, and 0 indicators.
Presolve time = 0,00 sec. (0,71 ticks)
Represolve time = 0,01 sec. (4,29 ticks)
   4614     0      847,6458   240     1870,0000      Cuts: 10    97840   39,32%
   4614     0      864,1605   240     1870,0000       Cuts: 6    97874   39,32%
   4614     0      868,4512   240     1870,0000       Cuts: 8    97932   39,32%
   4614     0      877,0572   240     1870,0000       Cuts: 6    97987   39,32%
*  4614+    0                         1822,0000     1134,7461            37,72%
   4614     2      877,0572   239     1822,0000     1134,7461    97987   37,72%
*  4629+    7                         1810,0000     1134,7461            37,31%
   5049    43     1562,2587    61     1810,0000     1134,7461   100568   37,31%
   7216  1670     1687,4674   178     1810,0000     1134,7461   156204   37,31%
  10029  3981     1384,0381   202     1810,0000     1134,7461   228623   37,31%

Performing restart 2

Repeating presolve.
Tried aggregator 1 time.
Reduced MIP has 220 rows, 240 columns, and 916 nonzeros.
Reduced MIP has 240 binaries, 0 generals, 0 SOSs, and 0 indicators.
Presolve time = 0,00 sec. (0,51 ticks)
Tried aggregator 1 time.
Reduced MIP has 220 rows, 240 columns, and 916 nonzeros.
Reduced MIP has 240 binaries, 0 generals, 0 SOSs, and 0 indicators.
Presolve time = 0,00 sec. (0,71 ticks)
Represolve time = 0,02 sec. (12,28 ticks)
  10547     0      891,7656   240     1810,0000       Cuts: 6   262412   37,31%
  10547     0      896,4328   240     1810,0000       Cuts: 4   262463   37,31%
  10547     0      900,1810   240     1810,0000       Cuts: 7   262512   37,31%
  10547     0      903,9026   240     1810,0000      Fract: 5   262590   37,31%
  10547     0      908,9843   240     1810,0000       Cuts: 7   262666   37,31%
  10547     0      927,7258   240     1810,0000      Cuts: 14   262816   37,31%
  10547     0      933,2697   240     1810,0000      Cuts: 29   262953   37,31%
  10547     2      933,2697   239     1810,0000     1216,7948   262953   32,77%
* 10683+   12                         1765,0000     1216,7948            31,06%
  12980  1644     1387,5046   186     1765,0000     1216,7948   338703   31,06%
  15228  3299     1600,2935   125     1765,0000     1330,6759   448313   24,61%
  17808  4877        cutoff           1765,0000     1390,9345   558589   21,19%
  20438  6427     1643,2147   117     1765,0000     1431,6313   670080   18,89%
  30498 11137     1714,7623   132     1765,0000     1532,5890  1125127   13,17%
Elapsed time = 4,18 sec. (3465,70 ticks, tree = 3,99 MB, solutions = 8)
  41238 14015     1739,0125   129     1765,0000     1592,9422  1568827    9,75%
  52265 14130        cutoff           1765,0000     1646,0141  2045862    6,74%
  64633  7802     1753,9585   155     1765,0000     1708,2783  2527145    3,21%

Clique cuts applied:  43
Cover cuts applied:  495
Mixed integer rounding cuts applied:  21
Zero-half cuts applied:  6
Lift and project cuts applied:  1
Gomory fractional cuts applied:  35

Root node processing (before b&c):
  Real time             =    0,06 sec. (25,11 ticks)
Parallel b&c, 16 threads:
  Real time             =    9,05 sec. (6677,50 ticks)
  Sync time (average)   =    2,48 sec.
  Wait time (average)   =    0,01 sec.
                          ------------
Total (root+branch&cut) =    9,11 sec. (6702,61 ticks)
